job_count = 14 ;
duration = [|19, 19, 19|12, 8, 5|17, 11, 4|17, 13, 15|10, 2, 9|11, 5, 7|25, 10, 7|14, 13, 14|24, 18, 11|13, 13, 2|29, 14, 9|13, 11, 3|13, 22, 11|14, 3, 13|] ;
machine_count = 3 ;
cost = [|36, 40, 50|15, 26, 57|31, 42, 53|17, 38, 41|11, 40, 58|19, 39, 34|23, 26, 46|37, 35, 33|39, 48, 44|11, 26, 57|18, 48, 53|19, 22, 40|38, 46, 54|34, 29, 57|] ;
deadline = [35, 42, 69, 34, 77, 51, 18, 74, 64, 63, 60, 36, 63, 87] ;
release = [1, 11, 44, 3, 36, 14, 0, 36, 46, 32, 19, 14, 38, 44] ;
resource = [|9, 9, 9|4, 4, 4|1, 1, 1|3, 3, 3|9, 9, 9|9, 9, 9|5, 5, 5|1, 1, 1|8, 8, 8|6, 6, 6|4, 4, 4|6, 6, 6|5, 5, 5|8, 8, 8|] ;
capacities = [10, 10, 10] ;
